HmaxDs = 1.500000
HmaxUB_percent = 1.057506
HmaxUB_real = 5883.274781
FTnetDs = 1.500000
FTnetUB_percent = 1.987166
FTnetUB_real = 16834.593868
TIFgap = 0.400000
LimCIPF = 60.615282
SCIP version 1.1.0 [precision: 8 byte] [memory: block] [mode: optimized] [LP solver: Clp 1.8.2]
Copyright (c) 2002-2008 Konrad-Zuse-Zentrum fuer Informationstechnik Berlin (ZIB)

reading user parameter file </home/fabio/docs/hierarquia/models/scip.set>

read problem <data.N30.I1.s1.cluster1.T5.GL1.W5.TIFgap0.4.mps.gz>
============

original problem has 815 variables (410 bin, 0 int, 0 impl, 405 cont) and 262 constraints

solve problem
=============

presolving:
(round 1) 3 del vars, 3 del conss, 4 chg bounds, 0 chg sides, 100 chg coeffs, 0 upgd conss, 0 impls, 100 clqs
(round 2) 5 del vars, 3 del conss, 4 chg bounds, 1 chg sides, 100 chg coeffs, 0 upgd conss, 0 impls, 100 clqs
(round 3) 5 del vars, 3 del conss, 4 chg bounds, 3 chg sides, 100 chg coeffs, 0 upgd conss, 0 impls, 100 clqs
(round 4) 5 del vars, 4 del conss, 4 chg bounds, 3 chg sides, 100 chg coeffs, 101 upgd conss, 0 impls, 100 clqs
(round 5) 55 del vars, 4 del conss, 4 chg bounds, 3 chg sides, 100 chg coeffs, 101 upgd conss, 1392 impls, 87 clqs
(round 6) 87 del vars, 24 del conss, 4 chg bounds, 3 chg sides, 100 chg coeffs, 101 upgd conss, 1392 impls, 80 clqs
presolving (7 rounds):
 87 deleted vars, 24 deleted constraints, 4 tightened bounds, 0 added holes, 3 changed sides, 100 changed coefficients
 10992 implications, 80 cliques
presolved problem has 728 variables (328 bin, 0 int, 0 impl, 400 cont) and 238 constraints
      1 constraints of type <knapsack>
     80 constraints of type <setppc>
    157 constraints of type <linear>
Presolving Time: 0.21

 time | node  | left  |LP iter| mem |mdpt |frac |vars |cons |ccons|cols |rows |cuts |confs|strbr|  dualbound   | primalbound  |  gap   
  0.2s|     1 |     0 |   235 |2166k|   0 | 101 | 728 | 238 | 238 | 728 | 238 |   0 |   0 |   0 | 1.384504e+01 |      --      |    Inf 
  0.9s|     1 |     0 |  4183 |2356k|   0 | 103 | 728 | 238 | 238 | 728 | 277 |  39 |   0 |   0 | 3.479099e+01 |      --      |    Inf 
  1.3s|     1 |     0 |  5056 |2496k|   0 | 100 | 728 | 238 | 238 | 728 | 312 |  74 |   0 |   0 | 1.830002e+03 |      --      |    Inf 
  1.8s|     1 |     0 |  5885 |2588k|   0 | 130 | 728 | 238 | 238 | 728 | 337 |  99 |   0 |   0 | 3.917610e+03 |      --      |    Inf 
  2.3s|     1 |     0 |  6442 |2705k|   0 | 108 | 728 | 238 | 238 | 728 | 375 | 137 |   0 |   0 | 4.006292e+03 |      --      |    Inf 
  2.9s|     1 |     0 |  7005 |2782k|   0 | 123 | 728 | 238 | 238 | 728 | 403 | 165 |   0 |   0 | 4.381467e+03 |      --      |    Inf 
  3.3s|     1 |     0 |  7370 |2825k|   0 | 119 | 728 | 238 | 238 | 728 | 422 | 184 |   0 |   0 | 4.396900e+03 |      --      |    Inf 
  3.8s|     1 |     0 |  7773 |2884k|   0 | 130 | 728 | 238 | 238 | 728 | 445 | 207 |   0 |   0 | 4.421684e+03 |      --      |    Inf 
  4.4s|     1 |     0 |  8096 |2906k|   0 | 117 | 728 | 238 | 238 | 728 | 460 | 222 |   0 |   0 | 4.454198e+03 |      --      |    Inf 
  5.0s|     1 |     0 |  8753 |2935k|   0 | 125 | 728 | 238 | 238 | 728 | 476 | 238 |   0 |   0 | 4.492506e+03 |      --      |    Inf 
  5.6s|     1 |     0 |  8982 |2957k|   0 | 133 | 728 | 238 | 238 | 728 | 489 | 251 |   0 |   0 | 4.494271e+03 |      --      |    Inf 
  5.7s|     1 |     0 |  9150 |2957k|   0 | 124 | 728 | 238 | 238 | 728 | 490 | 252 |   0 |   0 | 4.496600e+03 |      --      |    Inf 
 13.1s|     1 |     2 |  9150 |2963k|   0 | 124 | 728 | 238 | 238 | 728 | 490 | 252 |   0 |  39 | 4.496600e+03 |      --      |    Inf 

SCIP Status        : problem is solved [infeasible]
Solving Time (sec) : 30.54
Solving Nodes      : 69
Primal Bound       : +1.00000000000000e+20 (0 solutions)
Dual Bound         : +1.00000000000000e+20
Gap                : 0.00 %

primal solution:
================

no solution available

Statistics
==========

SCIP Status        : problem is solved [infeasible]
Solving Time       :      30.54
Original Problem   :
  Problem name     : labtel
  Variables        : 815 (410 binary, 0 integer, 0 implicit integer, 405 continuous)
  Constraints      : 262 initial, 262 maximal
Presolved Problem  :
  Problem name     : t_labtel
  Variables        : 728 (328 binary, 0 integer, 0 implicit integer, 400 continuous)
  Constraints      : 238 initial, 249 maximal
Presolvers         :       Time  FixedVars   AggrVars   ChgTypes  ChgBounds   AddHoles    DelCons   ChgSides   ChgCoefs
  trivial          :       0.00          0          0          0          0          0          0          0          0
  dualfix          :       0.00          0          0          0          0          0          0          0          0
  boundshift       :       0.00          0          0          0          0          0          0          0          0
  inttobinary      :       0.00          0          0          0          0          0          0          0          0
  implics          :       0.00          0          0          0          0          0          0          0          0
  probing          :       0.18         50          0          0          0          0          0          0          0
  knapsack         :       0.00          0          0          0          0          0          0          0          0
  setppc           :       0.00         32          0          0          0          0         20          0          0
  linear           :       0.02          0          5          0          4          0          4          3        100
  logicor          :       0.00          0          0          0          0          0          0          0          0
  root node        :          -         41          -          -         41          -          -          -          -
Constraints        :     Number  #Separate #Propagate    #EnfoLP    #EnfoPS    Cutoffs    DomReds       Cuts      Conss   Children
  integral         :          0          0          0         37          0          0          2          0          0         70
  knapsack         :          1         12        979          0          0          0          0          0          0          0
  setppc           :         80         12        979          0          0          8       3385          0          0          0
  linear           :        157         12        971          0          0         29        328          1          0          0
  logicor          :          0+         0         59          0          0          4         15          0          0          0
  countsols        :          0          0          0          0          0          0          0          0          0          0
Constraint Timings :  TotalTime   Separate  Propagate     EnfoLP     EnfoPS
  integral         :      13.65       0.00       0.00      13.65       0.00
  knapsack         :       0.00       0.00       0.00       0.00       0.00
  setppc           :       0.02       0.00       0.02       0.00       0.00
  linear           :       0.12       0.01       0.11       0.00       0.00
  logicor          :       0.00       0.00       0.00       0.00       0.00
  countsols        :       0.00       0.00       0.00       0.00       0.00
Propagators        :       Time      Calls    Cutoffs    DomReds
  rootredcost      :       0.00          0          0          0
  pseudoobj        :       0.00        191          0          0
Conflict Analysis  :       Time      Calls    Success  Conflicts   Literals    Reconvs ReconvLits   LP Iters
  propagation      :       0.00          8          8         15       14.1          0        0.0          -
  infeasible LP    :       0.01          8          0          0        0.0          0        0.0          0
  bound exceed. LP :       0.00          0          0          0        0.0          0        0.0          0
  strong branching :       0.00          0          0          0        0.0          0        0.0          0
  pseudo solution  :       0.00          0          0          0        0.0          0        0.0          -
  applied globally :          -          -          -         12        9.0          -          -          -
  applied locally  :          -          -          -          0        0.0          -          -          -
Separators         :       Time      Calls    Cutoffs    DomReds       Cuts      Conss
  cut pool         :       0.01         11          -          -         20          -    (maximal pool size: 505)
  redcost          :       0.00         48          0          0          0          0
  impliedbounds    :       0.00         12          0          0          0          0
  intobj           :       0.00          0          0          0          0          0
  gomory           :       0.27         12          0          0          0          0
  strongcg         :       0.23         12          0          0          0          0
  cmir             :       1.88         10          0          0        477          0
  flowcover        :       1.29         10          0          0         37          0
  clique           :       0.02         12          0          0          0          0
  zerohalf         :       0.00          0          0          0          0          0
  mcf              :       0.00          0          0          0          0          0
Pricers            :       Time      Calls       Vars
  problem variables:       0.00          0          0
Branching Rules    :       Time      Calls    Cutoffs    DomReds       Cuts      Conss   Children
  relpscost        :      13.65         37          0          2          0          0         70
  pscost           :       0.00          0          0          0          0          0          0
  inference        :       0.00          0          0          0          0          0          0
  mostinf          :       0.00          0          0          0          0          0          0
  leastinf         :       0.00          0          0          0          0          0          0
  fullstrong       :       0.00          0          0          0          0          0          0
  allfullstrong    :       0.00          0          0          0          0          0          0
  random           :       0.00          0          0          0          0          0          0
Primal Heuristics  :       Time      Calls      Found
  LP solutions     :       0.00          -          0
  pseudo solutions :       0.00          -          0
  oneopt           :       0.00          0          0
  pscostdiving     :       0.00          0          0
  fracdiving       :       0.00          0          0
  veclendiving     :       0.00          0          0
  objpscostdiving  :       0.00          0          0
  rootsoldiving    :       0.00          0          0
  linesearchdiving :       0.00          0          0
  guideddiving     :       0.00          0          0
  crossover        :       0.00          0          0
  coefdiving       :       0.04          1          0
  simplerounding   :       0.00          0          0
  rounding         :       0.02         48          0
  shifting         :       0.05         13          0
  intshifting      :       0.00          1          0
  fixandinfer      :       0.00          0          0
  feaspump         :       0.44          1          0
  intdiving        :       0.00          0          0
  actconsdiving    :       0.00          0          0
  octane           :       0.00          0          0
  rens             :       5.79          1          0
  rins             :       0.00          0          0
  localbranching   :       0.00          0          0
  mutation         :       0.00          0          0
  dins             :       0.00          0          0
LP                 :       Time      Calls Iterations  Iter/call   Iter/sec
  primal LP        :       0.04          0          0       0.00       0.00
  dual LP          :       6.50         63      27736     440.25    4267.08
  barrier LP       :       0.00          0          0       0.00          -
  diving/probing LP:       0.47         44       3896      88.55    8289.36
  strong branching :      13.64        584      65752     112.59    4820.53
    (at root node) :          -         39       5603     143.67          -
  conflict analysis:       0.00          0          0       0.00          -
B&B Tree           :
  number of runs   :          1
  nodes            :         69
  nodes (total)    :         69
  nodes left       :          0
  max depth        :         14
  max depth (total):         14
  backtracks       :         14 (20.3%)
  delayed cutoffs  :          2
  repropagations   :         21 (252 domain reductions, 2 cutoffs)
  avg switch length:       3.07
  switching time   :       0.04
Solution           :
  Solutions found  :          0 (0 improvements)
  Primal Bound     : infeasible
  Dual Bound       :          -
  Gap              :       0.00 %
  Root Dual Bound  : +4.49660026672189e+03
